Rota do caixeiro dada pelo LK = 0 26 16 41 23 2 34 3 25 10 33 46 22 47 11 12 19 18 21 45 27 37 48 39 9 42 13 36 32 5 44 4 7 1 30 20 8 29 14 31 28 35 17 49 24 6 15 38 43 40 Custo TSP = 6136
Optimize a model with 13647783 rows, 7960290 columns and 48572130 nonzeros
Coefficient statistics:
  Matrix range    [1e+00, 6e+02]
  Objective range [1e+02, 6e+02]
  Bounds range    [1e+00, 1e+05]
  RHS range       [1e+00, 9e+03]
Presolve removed 0 rows and 0 columns (presolve time = 15s) ...
Presolve removed 80019 rows and 247972 columns (presolve time = 27s) ...
Presolve removed 9580721 rows and 4088132 columns (presolve time = 36s) ...
Presolve removed 9595651 rows and 4096631 columns (presolve time = 41s) ...
